SIRLTrain/event_horizon_solution.sol
# Solution for model EventHorizonPlanning
# Objective value = 1858800
Prepare[0,SCP] 50
Prepare[0,PWP] 80
Prepare[0,GEP] 30
Prepare[1,SCP] 50
Prepare[1,PWP] 80
Prepare[1,GEP] 30
Prepare[2,SCP] 50
Prepare[2,PWP] 80
Prepare[2,GEP] 30
Prepare[3,SCP] 50
Prepare[3,PWP] 80
Prepare[3,GEP] 30
Prepare[4,SCP] 50
Prepare[4,PWP] 80
Prepare[4,GEP] 30
Prepare[5,SCP] 52
Prepare[5,PWP] 83
Prepare[5,GEP] 31
Unassigned[0,SCP] 0
Unassigned[0,PWP] 0
Unassigned[0,GEP] 0
Unassigned[1,SCP] 0
Unassigned[1,PWP] 0
Unassigned[1,GEP] 0
Unassigned[2,SCP] 0
Unassigned[2,PWP] 0
Unassigned[2,GEP] 0
Unassigned[3,SCP] 0
Unassigned[3,PWP] 0
Unassigned[3,GEP] 0
Unassigned[4,SCP] 0
Unassigned[4,PWP] 0
Unassigned[4,GEP] 0
Unassigned[5,SCP] 2
Unassigned[5,PWP] 3
Unassigned[5,GEP] 1
Book[0,SCP] 50
Book[0,PWP] 80
Book[0,GEP] 30
Book[1,SCP] 50
Book[1,PWP] 80
Book[1,GEP] 30
Book[2,SCP] 50
Book[2,PWP] 80
Book[2,GEP] 30
Book[3,SCP] 50
Book[3,PWP] 80
Book[3,GEP] 30
Book[4,SCP] 50
Book[4,PWP] 80
Book[4,GEP] 30
Book[5,SCP] 50
Book[5,PWP] 80
Book[5,GEP] 30
